3743.37
0 3 4 5 6 8 9 10 11 12 13 14 17 98 0
0 16 18 19 20 21 22 23 24 25 26 27 29 35 46 91 119 109 0
0 31 32 33 34 36 37 38 39 40 41 42 43 44 89 0
0 45 47 48 49 50 51 52 53 54 55 56 57 0
0 59 61 62 63 65 66 67 68 137 146 0
0 73 74 75 76 77 78 79 80 81 82 83 84 125 124 0
0 85 86 87 88 90 92 93 94 95 60 0
0 96 97 99 100 101 103 104 105 107 108 30 130 1 69 0
0 112 113 114 115 116 117 118 121 129 128 71 2 15 0
0 122 123 126 127 131 132 133 136 134 28 72 0
0 135 138 139 140 141 142 144 145 147 111 110 58 0
0 148 149 150 120 7 102 143 106 64 70 0
